
Gurobi 6.0.4 (win64) logging started 06/21/15 19:05:31

Read LP format model from file C:\MT\repository\VRPTWMS\instances\mip\fuel\N4-C_DV100-C_SV30_F6_0_No_1.lp
Reading time = 0.00 seconds
(null): 129 rows, 72 columns, 447 nonzeros
Optimize a model with 129 rows, 72 columns and 447 nonzeros
Model has 64 quadratic constraints
Coefficient statistics:
  Matrix range    [1e+00, 1e+06]
  Objective range [1e+05, 1e+07]
  Bounds range    [1e+00, 1e+06]
  RHS range       [1e+00, 1e+06]
Presolve removed 62 rows and 28 columns
Presolve time: 0.01s
Presolved: 131 rows, 76 columns, 616 nonzeros
Variable types: 32 continuous, 44 integer (35 binary)
Found heuristic solution: objective 3.178670e+07
Found heuristic solution: objective 3.159960e+07

Root relaxation: objective 2.159090e+07, 6 iterations, 0.00 seconds

    Nodes    |    Current Node    |     Objective Bounds      |     Work
 Expl Unexpl |  Obj  Depth IntInf | Incumbent    BestBd   Gap | It/Node Time

*    0     0               0    2.159090e+07 2.1591e+07  0.00%     -    0s

Explored 0 nodes (6 simplex iterations) in 0.01 seconds
Thread count was 2 (of 4 available processors)

Optimal solution found (tolerance 1.00e-04)
Best objective 2.159090000000e+07, best bound 2.159090000000e+07, gap 0.0%
k_c1	70000.0
k_c2	30000.0
k_c3	50000.0
k_c4	999999.0
k_dN	-0.0
o_1	-0.0
o_2	-0.0
o_3	-0.0
o_4	-0.0
p_1	-0.0
p_2	-0.0
p_3	-0.0
p_4	-0.0
phi_c1	43372.0
phi_c2	15287.0
phi_c3	22833.0
phi_c4	50420.0
phi_d0	60000.0
phi_dN	-0.0
tauD_c1	300000.0
tauD_c2	700000.0
tauD_c3	450000.0
tauD_c4	250000.0
tauD_d0	-0.0
tauD_dN	1000000.0
tauS_c1	-0.0
tauS_c2	-0.0
tauS_c3	-0.0
tauS_c4	-0.0
tauS_d0	-0.0
tauS_dN	104950.0
x_c1_c2	1.0
x_c2_dN	1.0
x_c3_dN	1.0
x_c4_c3	1.0
x_d0_c1	1.0
x_d0_c4	1.0
